100 58140

 793 128
908 766
944 1
961 417
522 523
978 55
758 974
162 227
477 305
719 304
248 231
641 2
667 730
163 967
566 225
772 664
499 742
13 849
10 423
358 303
927 326
229 713
635 817
223 182
322 371
849 902
729 807
96 985
429 755
30 394
481 591
663 662
119 79
289 545
398 710
920 168
994 781
45 584
762 953
372 43
393 266
755 602
919 297
951 715
578 760
358 103
788 514
252 509
565 370
359 933
657 828
241 698
192 715
919 462
102 921
506 695
221 729
39 862
37 275
176 808
867 196
283 346
951 336
582 979
437 857
581 702
517 728
759 563
283 948
354 497
895 381
947 164
893 787
420 735
781 385
477 26
498 839
205 12
592 704
187 971
332 438
856 235
208 705
72 818
70 547
941 968
507 52
410 505
811 719
836 863
333 180
694 801
772 553
655 397
152 132
876 866
540 158
283 310
426 291
38 872
